p tw 165 590
0 1
0 2
0 112
0 148
0 157
1 2
1 117
1 150
2 48
2 102
2 116
2 149
2 154
3 4
3 5
3 6
3 7
3 8
3 58
3 59
4 5
4 6
4 7
4 8
4 18
4 57
4 64
4 75
4 121
4 136
4 151
5 6
5 7
5 8
5 96
5 97
6 7
6 8
6 19
6 122
6 155
6 156
7 8
7 76
8 77
8 80
8 115
8 120
8 164
9 10
9 11
9 126
9 140
9 141
9 142
9 143
10 11
10 29
10 146
10 147
11 105
11 106
12 13
12 14
12 15
12 16
12 89
12 137
13 14
13 15
13 16
13 90
13 98
13 152
13 161
14 15
14 16
14 39
14 79
14 132
14 138
14 143
15 16
15 63
15 101
15 142
15 146
16 81
16 88
16 123
16 153
17 18
17 19
17 56
18 19
18 57
18 64
18 75
18 121
18 136
18 151
19 122
19 155
19 156
20 21
20 22
20 115
21 22
21 163
21 164
22 75
22 76
22 77
22 78
23 24
23 25
23 26
23 27
23 41
23 54
23 85
23 109
23 110
23 111
23 112
24 25
24 26
24 27
24 144
25 26
25 27
25 64
25 65
25 66
26 27
26 67
26 68
26 69
26 70
26 71
27 114
27 118
28 29
28 30
28 31
28 32
28 33
28 34
28 35
28 45
28 46
28 47
28 48
28 49
29 30
29 31
29 32
29 33
29 34
29 35
29 146
29 147
30 31
30 32
30 33
30 34
30 35
30 63
31 32
31 33
31 34
31 35
31 60
31 148
31 149
31 150
32 33
32 34
32 35
32 43
32 44
33 34
33 35
33 98
33 99
33 100
33 101
33 102
34 35
34 113
34 129
34 139
35 107
36 37
36 38
36 39
36 40
36 52
36 124
36 125
36 126
36 127
37 38
37 39
37 40
37 51
38 39
38 40
38 62
38 108
39 40
39 79
39 132
39 138
39 143
40 53
40 131
40 135
41 42
41 54
41 85
41 109
41 110
41 111
41 112
42 50
43 44
43 47
43 100
43 104
43 113
44 107
45 46
45 47
45 48
45 49
45 60
46 47
46 48
46 49
46 99
46 139
47 48
47 49
47 100
47 104
47 113
48 49
48 102
48 116
48 149
48 154
49 103
49 129
50 54
50 55
51 52
51 53
52 53
52 124
52 125
52 126
52 127
53 131
53 135
54 55
54 85
54 109
54 110
54 111
54 112
55 92
55 93
55 94
55 95
56 57
57 64
57 75
57 121
57 136
57 151
58 59
58 97
58 151
58 155
59 119
59 120
59 121
59 122
59 123
60 148
60 149
60 150
61 62
61 84
62 108
63 101
63 142
63 146
64 65
64 66
64 75
64 121
64 136
64 151
65 66
65 70
65 118
66 69
66 91
66 119
66 128
67 68
67 69
67 70
67 71
67 73
67 87
67 92
67 109
67 160
68 69
68 70
68 71
68 74
68 93
68 110
68 144
68 145
69 70
69 71
69 91
69 119
69 128
70 71
70 118
71 114
72 73
72 74
72 94
72 111
72 158
73 74
73 87
73 92
73 109
73 160
74 93
74 110
74 144
74 145
75 76
75 77
75 78
75 121
75 136
75 151
76 77
76 78
77 78
77 80
77 115
77 120
77 164
78 82
78 133
78 163
79 80
79 81
79 82
79 83
79 132
79 138
79 143
80 81
80 82
80 83
80 115
80 120
80 164
81 82
81 83
81 88
81 123
81 153
82 83
82 133
82 163
83 134
84 108
84 125
84 130
84 131
84 132
84 133
84 134
85 86
85 109
85 110
85 111
85 112
86 154
86 157
86 160
86 161
87 88
87 89
87 90
87 91
87 92
87 109
87 160
88 89
88 90
88 91
88 123
88 153
89 90
89 91
89 137
90 91
90 98
90 152
90 161
91 119
91 128
92 93
92 94
92 95
92 109
92 160
93 94
93 95
93 110
93 144
93 145
94 95
94 111
94 158
95 159
96 97
96 156
97 151
97 155
98 99
98 100
98 101
98 102
98 152
98 161
99 100
99 101
99 102
99 139
100 101
100 102
100 104
100 113
101 102
101 142
101 146
102 116
102 149
102 154
103 104
103 129
104 113
105 106
105 140
106 130
106 141
106 147
106 162
108 125
108 130
108 131
108 132
108 133
108 134
109 110
109 111
109 112
109 160
110 111
110 112
110 144
110 145
111 112
111 158
112 148
112 157
113 129
113 139
114 118
115 120
115 164
116 117
116 149
116 154
117 150
119 120
119 121
119 122
119 123
119 128
120 121
120 122
120 123
120 164
121 122
121 123
121 136
121 151
122 123
122 155
122 156
123 153
124 125
124 126
124 127
124 162
125 126
125 127
125 130
125 131
125 132
125 133
125 134
126 127
126 140
126 141
126 142
126 143
127 135
127 138
128 136
129 139
130 131
130 132
130 133
130 134
130 141
130 147
130 162
131 132
131 133
131 134
131 135
132 133
132 134
132 138
132 143
133 134
133 163
135 138
136 151
137 152
137 153
138 143
140 141
140 142
140 143
141 142
141 143
141 147
141 162
142 143
142 146
144 145
145 158
145 159
146 147
147 162
148 149
148 150
148 157
149 150
149 154
151 155
152 153
152 161
154 157
154 160
154 161
155 156
157 160
157 161
158 159
160 161
163 164
